c read Graph
c width = 77
c time = 462 ms
c width = 7
c time = 674 ms
c width = 6
c time = 1282 ms
c width = 6
c time = 3919 ms
s td 84 7 90
b 1 1 2 16
b 2 2 3 16 17
b 3 13 14 29 30
b 4 3 16 17 31
b 5 13 29 30 45
b 6 46 61 62 77
b 7 60 74 75 89
b 8 46 62 77 78
b 9 60 74 88 89
b 10 3 4 5 19
b 11 3 5 19 33 46 47
b 12 3 19 32 33 46 47
b 13 3 18 19 32 33 46
b 14 3 18 31 32 46
b 15 3 17 18 31 32
b 16 5 19 33 46 47 63 79
b 17 5 19 33 47 49 63 79
b 18 5 19 33 35 49 63 79
b 19 5 19 21 35 49 63 79
b 20 5 7 21 35 49 63 79
b 21 7 21 35 49 63 65 79
b 22 7 21 35 49 51 65 79
b 23 7 21 35 37 51 65 79
b 24 7 21 23 37 51 65 79
b 25 7 9 23 37 51 65 79
b 26 9 23 37 51 65 79 81
b 27 9 23 37 51 65 67 81
b 28 9 23 37 51 53 67 81
b 29 9 23 37 39 53 67 81
b 30 9 23 25 39 53 67 81
b 31 9 11 25 39 53 67 81
b 32 11 25 39 53 67 81 83
b 33 11 25 39 53 67 69 83
b 34 11 25 39 53 55 69 83
b 35 11 25 39 41 55 69 83
b 36 11 25 27 41 55 69 83
b 37 11 27 41 55 69 83 85
b 38 11 27 41 55 69 71 85
b 39 11 27 41 55 57 71 85
b 40 11 27 41 43 57 71 85
b 41 11 27 43 57 71 85 87
b 42 11 27 43 57 71 73 87
b 43 11 27 43 57 59 73 87
b 44 11 27 43 59 60 73 87
b 45 9 10 11 25
b 46 55 69 70 71 85
b 47 25 39 40 41 55
b 48 9 23 24 25 39
b 49 39 53 54 55 69
b 50 23 37 38 39 53
b 51 7 8 9 23
b 52 7 21 22 23 37
b 53 5 6 7 21
b 54 69 83 84 85
b 55 53 67 68 69 83
b 56 67 81 82 83
b 57 37 51 52 53 67
b 58 51 65 66 67 81
b 59 65 79 80 81
b 60 41 55 56 57 71
b 61 11 25 26 27 41
b 62 21 35 36 37 51
b 63 49 63 64 65 79
b 64 35 49 50 51 65
b 65 5 19 20 21 35
b 66 57 71 72 73 87
b 67 43 57 58 59 73
b 68 11 13 27 43 59 60
b 69 13 27 43 44 59 60
b 70 13 27 28 43 44 60
b 71 13 28 44 45 60
b 72 13 28 29 44 45
b 73 11 12 13 27
b 74 59 60 73 87 88
b 75 59 60 73 74 88
b 76 71 85 86 87
b 77 27 41 42 43 57
b 78 19 33 34 35 49
b 79 33 47 48 49 63
b 80 46 47 63 78 79
b 81 46 47 62 63 78
b 82 75 89 90
b 83 61 76 77
b 84 14 15 30
1 2
2 4
3 84
3 5
4 15
5 72
6 83
6 8
7 82
7 9
8 81
9 75
10 11
11 16
11 12
12 13
13 14
14 15
16 80
16 17
17 79
17 18
18 78
18 19
19 65
19 20
20 53
20 21
21 63
21 22
22 64
22 23
23 62
23 24
24 52
24 25
25 51
25 26
26 59
26 27
27 58
27 28
28 57
28 29
29 50
29 30
30 48
30 31
31 45
31 32
32 56
32 33
33 55
33 34
34 49
34 35
35 47
35 36
36 61
36 37
37 54
37 38
38 46
38 39
39 60
39 40
40 77
40 41
41 76
41 42
42 66
42 43
43 67
43 44
44 74
44 68
68 73
68 69
69 70
70 71
71 72
74 75
80 81
